
******************************************************************************
This program contains Ipopt, a library for large-scale nonlinear optimization.
 Ipopt is released as open source code under the Eclipse Public License (EPL).
         For more information visit http://projects.coin-or.org/Ipopt
******************************************************************************

This is Ipopt version 3.12.6, running with linear solver ma57.

Number of nonzeros in equality constraint Jacobian...:        0
Number of nonzeros in inequality constraint Jacobian.:        0
Number of nonzeros in Lagrangian Hessian.............:       18

Total number of variables............................:        9
                     variables with only lower bounds:        0
                variables with lower and upper bounds:        9
                     variables with only upper bounds:        0
Total number of equality constraints.................:        0
Total number of inequality constraints...............:        0
        inequality constraints with only lower bounds:        0
   inequality constraints with lower and upper bounds:        0
        inequality constraints with only upper bounds:        0

iter    objective    inf_pr   inf_du lg(mu)  ||d||  lg(rg) alpha_du alpha_pr  ls
   0  1.3272332e+05 0.00e+00 1.00e+02  -1.0 0.00e+00    -  0.00e+00 0.00e+00   0
   1  5.9975130e+04 0.00e+00 9.08e+01  -1.0 9.62e-01   2.0 3.63e-01 1.00e+00f  1
   2  1.7688875e+04 0.00e+00 7.61e+01  -1.0 1.69e+00   1.5 7.38e-01 1.00e+00f  1
   3  1.3103573e+03 0.00e+00 1.31e+01  -1.0 3.39e+00    -  4.04e-01 1.00e+00f  1
   4  7.3264349e+01 0.00e+00 1.58e+00  -1.0 2.42e+00    -  8.86e-01 1.00e+00f  1
   5  2.1031455e+01 0.00e+00 4.31e-02  -1.0 2.30e-01    -  1.00e+00 1.00e+00f  1
   6  3.7062745e+00 0.00e+00 8.00e-03  -2.5 1.26e-01    -  9.55e-01 1.00e+00f  1
   7  1.7993705e-01 0.00e+00 3.58e-03  -3.8 7.73e-02    -  1.00e+00 1.00e+00f  1
   8  1.4194429e-03 0.00e+00 2.52e-04  -3.8 2.04e-02    -  1.00e+00 1.00e+00f  1
   9  1.8240240e-07 0.00e+00 2.44e-06  -5.7 2.03e-03    -  1.00e+00 1.00e+00f  1
iter    objective    inf_pr   inf_du lg(mu)  ||d||  lg(rg) alpha_du alpha_pr  ls
  10  2.3068524e-13 0.00e+00 3.36e-10  -8.6 2.39e-05    -  1.00e+00 1.00e+00f  1

Number of Iterations....: 10

                                   (scaled)                 (unscaled)
Objective...............:   3.8110811510765337e-16    2.3068523700448824e-13
Dual infeasibility......:   3.3569097320066297e-10    2.0319418202676609e-07
Constraint violation....:   0.0000000000000000e+00    0.0000000000000000e+00
Complementarity.........:   2.8346952487159926e-09    1.7158447153528312e-06
Overall NLP error.......:   2.8346952487159926e-09    1.7158447153528312e-06


Number of objective function evaluations             = 11
Number of objective gradient evaluations             = 11
Number of equality constraint evaluations            = 0
Number of inequality constraint evaluations          = 0
Number of equality constraint Jacobian evaluations   = 0
Number of inequality constraint Jacobian evaluations = 0
Number of Lagrangian Hessian evaluations             = 10
Total CPU secs in IPOPT (w/o function evaluations)   =      0.010
Total CPU secs in NLP function evaluations           =      0.090

EXIT: Optimal Solution Found.
Note: The following floating-point exceptions are signalling: IEEE_INVALID_FLAG IEEE_DIVIDE_BY_ZERO IEEE_UNDERFLOW_FLAG IEEE_DENORMAL

 ** SUBROUTINE CUTEST_csetup: Warning. The problem has no general constraints. 
 ** Other tools may be preferable ** 

************************ CUTEst statistics ************************


 Package used            :  IPOPT
 Problem                 :  SPECAN    
 # variables             =               9
 # constraints           =               0
 # objective functions   =        0.2300000E+02
 # objective gradients   =        0.1200000E+02
 # objective Hessians    =        0.1100000E+02
 # Hessian-vector prdct  =        0.0000000E+00
 # constraints functions =        0.0000000E+00
 # constraints gradients =        0.0000000E+00
 # constraints Hessians  =        0.0000000E+00
 Exit code               =               0
 Final f                 =   0.2306852E-12
 Set up time             =            0.76 seconds
 Solve time              =            0.10 seconds


******************************************************************

System Time =       0.1010000035 s.
